c Lingeling SAT Solver
c 
c Version azf 92032848c138b2f33629ad24394d60a3787a1046
c 
c Copyright (C) 2010-2014 Armin Biere JKU Linz Austria.
c All rights reserved.
c 
c released Don Mai 22 22:08:00 CEST 2014
c compiled Mon Oct  6 05:55:43 PDT 2014
c 
c gcc (Ubuntu 4.8.2-19ubuntu1) 4.8.2
c -Wall -O3 -DNDBLSCR -DNLGLOG -DNDEBUG -DNCHKSOL -DNLGLPICOSAT -DNLGLDRUPLIG
c -DNLGLYALSAT
c Linux ubuntu 3.13.0-32-generic x86_64
c 
c reading input file benchmark-sat/translations/gc-3-Insertions_4-4.cnf
c no embedded options
c found 'p cnf 1124 6151' header
c read 1124 variables, 6151 clauses, 12864 literals in 0.00 seconds
c 
c  seconds         irredundant          redundant clauses agility   height
c          variables clauses conflicts large ternary binary    glue         MB
c 
c S    0.0    1124     6151         0       0      0     0   0  0.0   0.0    0
c S    1.0     843     4184     27171    3555      0   843  19 15.8  84.0    1
c S    2.0     843     4184     58809    7899      0   843  19 16.4  84.4    3
c S    5.0     843     4184    143071    9249      0   843  18 17.2  84.7    3
c S   10.0     843     4184    280248   15780      0   843  17 19.9  84.9    5
c S   20.0     843     4184    484874    8609      0   843  18 19.9  84.2    1
c S   30.0     843     4184    749107   21972      0   843  19 21.0  83.8    4
c S   40.1     843     4184    949865   25653      0   843  18 21.4  83.4    6
c S   50.0     843     4184   1174882   35416      0   843  19 22.7  83.4   10
c S   60.0     843     4184   1352809   37587      0   843  18 23.7  83.3    7
c S  120.0     843     4184   2251101   21312      0   843  18 24.2  82.9    4
c S  180.0     843     4184   3391410   47231      0   843  18 25.7  82.7    7
c S  240.1     843     4184   4203160   70417      0   843  19 26.2  82.5   14
c S  300.1     843     4184   4997235   55584      0   843  21 26.0  82.4   11
c S  600.1     843     4184   7917345  139733      0   843  18 28.2  81.9   34
c S  900.0     843     4184  10960895   79050      0   843  19 28.9  81.7   14
